NAME: tsp50_13
COMMENT: 50-tsp problem (Padberg/Rinaldi)
TYPE: TSP
DIMENSION: 50
EDGE_WEIGHT_TYPE : EUC_2D
NODE_COORD_SECTION
1 34 39
2 9 20
3 3 17
4 6 37
5 22 15
6 20 36
7 22 4
8 17 10
9 18 9
10 37 3
11 17 9
12 19 38
13 39 1
14 25 35
15 32 23
16 29 27
17 8 14
18 34 15
19 21 1
20 23 33
21 28 24
22 32 5
23 37 5
24 8 28
25 37 0
26 39 11
27 18 23
28 21 1
29 24 36
30 24 0
31 24 6
32 24 34
33 33 3
34 30 24
35 14 0
36 32 31
37 37 26
38 30 3
39 21 8
40 4 28
41 10 10
42 5 17
43 15 13
44 19 15
45 36 37
46 0 34
47 37 3
48 0 1
49 7 37
50 25 29
